nNurses = 187;
nHours = 32;
minHours = 5;
maxHours = 9;
maxConsec = 9;
maxPresence = 10;
demand = [36, 38, 37, 40, 40, 38, 38, 36, 31, 36, 33, 32, 37, 35, 30, 29, 31, 36, 33, 32, 37, 35, 38, 40, 36, 32, 27, 26, 31, 31, 35, 37];
